(set-logic QF_LRA)
(declare-fun T1 () Real )
(declare-fun T2 () Real )
(declare-fun T3 () Real )
(declare-fun T4 () Real )
(declare-fun T5 () Real )
(declare-fun T6 () Real )
(declare-fun T7 () Real )
(declare-fun T8 () Real )
(declare-fun T9 () Real )
(declare-fun T10 () Real )
(declare-fun Z () Real )
(declare-fun k () Real )
(assert (let
(( $goal (>= Z k) ))
(let
((
$phi ( and 
(or ( <= ( + T1 88 ) T2 ) ( <= ( + T2 100 ) T1 ) )
(or ( <= ( + T1 140 )  ( + T2 100 ) ) ( <= ( + T2 166 )( + T1 88 ) ) )
(or ( <= ( + T1 223 )  ( + T2 166 ) ) ( <= ( + T2 185 )( + T1 140 ) ) )
(or ( <= ( + T1 318 )  ( + T2 185 ) ) ( <= ( + T2 256 )( + T1 223 ) ) )
(or ( <= ( + T1 400 )  ( + T2 256 ) ) ( <= ( + T2 346 )( + T1 318 ) ) )
(or ( <= ( + T1 424 )  ( + T2 346 ) ) ( <= ( + T2 383 )( + T1 400 ) ) )
(or ( <= ( + T1 520 )  ( + T2 383 ) ) ( <= ( + T2 442 )( + T1 424 ) ) )
(or ( <= ( + T1 533 )  ( + T2 442 ) ) ( <= ( + T2 538 )( + T1 520 ) ) )
(or ( <= ( + T1 563 )  ( + T2 538 ) ) ( <= ( + T2 610 )( + T1 533 ) ) )
(or ( <= ( + T1 595 )  ( + T2 610 ) ) ( <= ( + T2 622 )( + T1 563 ) ) )
(or ( <= ( + T1 682 )  ( + T2 622 ) ) ( <= ( + T2 671 )( + T1 595 ) ) )
(or ( <= ( + T1 750 )  ( + T2 671 ) ) ( <= ( + T2 744 )( + T1 682 ) ) )
(or ( <= ( + T1 88 ) T3 ) ( <= ( + T3 14 ) T1 ) )
(or ( <= ( + T1 140 )  ( + T3 14 ) ) ( <= ( + T3 97 )( + T1 88 ) ) )
(or ( <= ( + T1 223 )  ( + T3 97 ) ) ( <= ( + T3 100 )( + T1 140 ) ) )
(or ( <= ( + T1 318 )  ( + T3 100 ) ) ( <= ( + T3 184 )( + T1 223 ) ) )
(or ( <= ( + T1 400 )  ( + T3 184 ) ) ( <= ( + T3 209 )( + T1 318 ) ) )
(or ( <= ( + T1 424 )  ( + T3 209 ) ) ( <= ( + T3 243 )( + T1 400 ) ) )
(or ( <= ( + T1 520 )  ( + T3 243 ) ) ( <= ( + T3 277 )( + T1 424 ) ) )
(or ( <= ( + T1 533 )  ( + T3 277 ) ) ( <= ( + T3 342 )( + T1 520 ) ) )
(or ( <= ( + T1 563 )  ( + T3 342 ) ) ( <= ( + T3 427 )( + T1 533 ) ) )
(or ( <= ( + T1 595 )  ( + T3 427 ) ) ( <= ( + T3 443 )( + T1 563 ) ) )
(or ( <= ( + T1 682 )  ( + T3 443 ) ) ( <= ( + T3 502 )( + T1 595 ) ) )
(or ( <= ( + T1 750 )  ( + T3 502 ) ) ( <= ( + T3 520 )( + T1 682 ) ) )
(or ( <= ( + T1 88 ) T4 ) ( <= ( + T4 39 ) T1 ) )
(or ( <= ( + T1 140 )  ( + T4 39 ) ) ( <= ( + T4 94 )( + T1 88 ) ) )
(or ( <= ( + T1 223 )  ( + T4 94 ) ) ( <= ( + T4 124 )( + T1 140 ) ) )
(or ( <= ( + T1 318 )  ( + T4 124 ) ) ( <= ( + T4 145 )( + T1 223 ) ) )
(or ( <= ( + T1 400 )  ( + T4 145 ) ) ( <= ( + T4 231 )( + T1 318 ) ) )
(or ( <= ( + T1 424 )  ( + T4 231 ) ) ( <= ( + T4 299 )( + T1 400 ) ) )
(or ( <= ( + T1 520 )  ( + T4 299 ) ) ( <= ( + T4 387 )( + T1 424 ) ) )
(or ( <= ( + T1 533 )  ( + T4 387 ) ) ( <= ( + T4 424 )( + T1 520 ) ) )
(or ( <= ( + T1 563 )  ( + T4 424 ) ) ( <= ( + T4 509 )( + T1 533 ) ) )
(or ( <= ( + T1 595 )  ( + T4 509 ) ) ( <= ( + T4 567 )( + T1 563 ) ) )
(or ( <= ( + T1 682 )  ( + T4 567 ) ) ( <= ( + T4 626 )( + T1 595 ) ) )
(or ( <= ( + T1 750 )  ( + T4 626 ) ) ( <= ( + T4 701 )( + T1 682 ) ) )
(or ( <= ( + T1 88 ) T5 ) ( <= ( + T5 46 ) T1 ) )
(or ( <= ( + T1 140 )  ( + T5 46 ) ) ( <= ( + T5 116 )( + T1 88 ) ) )
(or ( <= ( + T1 223 )  ( + T5 116 ) ) ( <= ( + T5 186 )( + T1 140 ) ) )
(or ( <= ( + T1 318 )  ( + T5 186 ) ) ( <= ( + T5 204 )( + T1 223 ) ) )
(or ( <= ( + T1 400 )  ( + T5 204 ) ) ( <= ( + T5 285 )( + T1 318 ) ) )
(or ( <= ( + T1 424 )  ( + T5 285 ) ) ( <= ( + T5 355 )( + T1 400 ) ) )
(or ( <= ( + T1 520 )  ( + T5 355 ) ) ( <= ( + T5 445 )( + T1 424 ) ) )
(or ( <= ( + T1 533 )  ( + T5 445 ) ) ( <= ( + T5 491 )( + T1 520 ) ) )
(or ( <= ( + T1 563 )  ( + T5 491 ) ) ( <= ( + T5 544 )( + T1 533 ) ) )
(or ( <= ( + T1 595 )  ( + T5 544 ) ) ( <= ( + T5 589 )( + T1 563 ) ) )
(or ( <= ( + T1 682 )  ( + T5 589 ) ) ( <= ( + T5 619 )( + T1 595 ) ) )
(or ( <= ( + T1 750 )  ( + T5 619 ) ) ( <= ( + T5 648 )( + T1 682 ) ) )
(or ( <= ( + T1 88 ) T6 ) ( <= ( + T6 78 ) T1 ) )
(or ( <= ( + T1 140 )  ( + T6 78 ) ) ( <= ( + T6 93 )( + T1 88 ) ) )
(or ( <= ( + T1 223 )  ( + T6 93 ) ) ( <= ( + T6 186 )( + T1 140 ) ) )
(or ( <= ( + T1 318 )  ( + T6 186 ) ) ( <= ( + T6 249 )( + T1 223 ) ) )
(or ( <= ( + T1 400 )  ( + T6 249 ) ) ( <= ( + T6 279 )( + T1 318 ) ) )
(or ( <= ( + T1 424 )  ( + T6 279 ) ) ( <= ( + T6 331 )( + T1 400 ) ) )
(or ( <= ( + T1 520 )  ( + T6 331 ) ) ( <= ( + T6 363 )( + T1 424 ) ) )
(or ( <= ( + T1 533 )  ( + T6 363 ) ) ( <= ( + T6 384 )( + T1 520 ) ) )
(or ( <= ( + T1 563 )  ( + T6 384 ) ) ( <= ( + T6 442 )( + T1 533 ) ) )
(or ( <= ( + T1 595 )  ( + T6 442 ) ) ( <= ( + T6 504 )( + T1 563 ) ) )
(or ( <= ( + T1 682 )  ( + T6 504 ) ) ( <= ( + T6 545 )( + T1 595 ) ) )
(or ( <= ( + T1 750 )  ( + T6 545 ) ) ( <= ( + T6 640 )( + T1 682 ) ) )
(or ( <= ( + T1 88 ) T7 ) ( <= ( + T7 81 ) T1 ) )
(or ( <= ( + T1 140 )  ( + T7 81 ) ) ( <= ( + T7 161 )( + T1 88 ) ) )
(or ( <= ( + T1 223 )  ( + T7 161 ) ) ( <= ( + T7 193 )( + T1 140 ) ) )
(or ( <= ( + T1 318 )  ( + T7 193 ) ) ( <= ( + T7 259 )( + T1 223 ) ) )
(or ( <= ( + T1 400 )  ( + T7 259 ) ) ( <= ( + T7 296 )( + T1 318 ) ) )
(or ( <= ( + T1 424 )  ( + T7 296 ) ) ( <= ( + T7 338 )( + T1 400 ) ) )
(or ( <= ( + T1 520 )  ( + T7 338 ) ) ( <= ( + T7 430 )( + T1 424 ) ) )
(or ( <= ( + T1 533 )  ( + T7 430 ) ) ( <= ( + T7 512 )( + T1 520 ) ) )
(or ( <= ( + T1 563 )  ( + T7 512 ) ) ( <= ( + T7 523 )( + T1 533 ) ) )
(or ( <= ( + T1 595 )  ( + T7 523 ) ) ( <= ( + T7 584 )( + T1 563 ) ) )
(or ( <= ( + T1 682 )  ( + T7 584 ) ) ( <= ( + T7 635 )( + T1 595 ) ) )
(or ( <= ( + T1 750 )  ( + T7 635 ) ) ( <= ( + T7 727 )( + T1 682 ) ) )
(or ( <= ( + T1 88 ) T8 ) ( <= ( + T8 30 ) T1 ) )
(or ( <= ( + T1 140 )  ( + T8 30 ) ) ( <= ( + T8 71 )( + T1 88 ) ) )
(or ( <= ( + T1 223 )  ( + T8 71 ) ) ( <= ( + T8 108 )( + T1 140 ) ) )
(or ( <= ( + T1 318 )  ( + T8 108 ) ) ( <= ( + T8 142 )( + T1 223 ) ) )
(or ( <= ( + T1 400 )  ( + T8 142 ) ) ( <= ( + T8 179 )( + T1 318 ) ) )
(or ( <= ( + T1 424 )  ( + T8 179 ) ) ( <= ( + T8 197 )( + T1 400 ) ) )
(or ( <= ( + T1 520 )  ( + T8 197 ) ) ( <= ( + T8 260 )( + T1 424 ) ) )
(or ( <= ( + T1 533 )  ( + T8 260 ) ) ( <= ( + T8 274 )( + T1 520 ) ) )
(or ( <= ( + T1 563 )  ( + T8 274 ) ) ( <= ( + T8 306 )( + T1 533 ) ) )
(or ( <= ( + T1 595 )  ( + T8 306 ) ) ( <= ( + T8 313 )( + T1 563 ) ) )
(or ( <= ( + T1 682 )  ( + T8 313 ) ) ( <= ( + T8 341 )( + T1 595 ) ) )
(or ( <= ( + T1 750 )  ( + T8 341 ) ) ( <= ( + T8 355 )( + T1 682 ) ) )
(or ( <= ( + T1 88 ) T9 ) ( <= ( + T9 10 ) T1 ) )
(or ( <= ( + T1 140 )  ( + T9 10 ) ) ( <= ( + T9 70 )( + T1 88 ) ) )
(or ( <= ( + T1 223 )  ( + T9 70 ) ) ( <= ( + T9 104 )( + T1 140 ) ) )
(or ( <= ( + T1 318 )  ( + T9 104 ) ) ( <= ( + T9 171 )( + T1 223 ) ) )
(or ( <= ( + T1 400 )  ( + T9 171 ) ) ( <= ( + T9 244 )( + T1 318 ) ) )
(or ( <= ( + T1 424 )  ( + T9 244 ) ) ( <= ( + T9 270 )( + T1 400 ) ) )
(or ( <= ( + T1 520 )  ( + T9 270 ) ) ( <= ( + T9 332 )( + T1 424 ) ) )
(or ( <= ( + T1 533 )  ( + T9 332 ) ) ( <= ( + T9 337 )( + T1 520 ) ) )
(or ( <= ( + T1 563 )  ( + T9 337 ) ) ( <= ( + T9 394 )( + T1 533 ) ) )
(or ( <= ( + T1 595 )  ( + T9 394 ) ) ( <= ( + T9 439 )( + T1 563 ) ) )
(or ( <= ( + T1 682 )  ( + T9 439 ) ) ( <= ( + T9 509 )( + T1 595 ) ) )
(or ( <= ( + T1 750 )  ( + T9 509 ) ) ( <= ( + T9 602 )( + T1 682 ) ) )
(or ( <= ( + T1 88 ) T10 ) ( <= ( + T10 86 ) T1 ) )
(or ( <= ( + T1 140 )  ( + T10 86 ) ) ( <= ( + T10 99 )( + T1 88 ) ) )
(or ( <= ( + T1 223 )  ( + T10 99 ) ) ( <= ( + T10 125 )( + T1 140 ) ) )
(or ( <= ( + T1 318 )  ( + T10 125 ) ) ( <= ( + T10 222 )( + T1 223 ) ) )
(or ( <= ( + T1 400 )  ( + T10 222 ) ) ( <= ( + T10 295 )( + T1 318 ) ) )
(or ( <= ( + T1 424 )  ( + T10 295 ) ) ( <= ( + T10 324 )( + T1 400 ) ) )
(or ( <= ( + T1 520 )  ( + T10 324 ) ) ( <= ( + T10 364 )( + T1 424 ) ) )
(or ( <= ( + T1 533 )  ( + T10 364 ) ) ( <= ( + T10 419 )( + T1 520 ) ) )
(or ( <= ( + T1 563 )  ( + T10 419 ) ) ( <= ( + T10 488 )( + T1 533 ) ) )
(or ( <= ( + T1 595 )  ( + T10 488 ) ) ( <= ( + T10 564 )( + T1 563 ) ) )
(or ( <= ( + T1 682 )  ( + T10 564 ) ) ( <= ( + T10 604 )( + T1 595 ) ) )
(or ( <= ( + T1 750 )  ( + T10 604 ) ) ( <= ( + T10 609 )( + T1 682 ) ) )
(or ( <= ( + T2 100 ) T3 ) ( <= ( + T3 14 ) T2 ) )
(or ( <= ( + T2 166 )  ( + T3 14 ) ) ( <= ( + T3 97 )( + T2 100 ) ) )
(or ( <= ( + T2 185 )  ( + T3 97 ) ) ( <= ( + T3 100 )( + T2 166 ) ) )
(or ( <= ( + T2 256 )  ( + T3 100 ) ) ( <= ( + T3 184 )( + T2 185 ) ) )
(or ( <= ( + T2 346 )  ( + T3 184 ) ) ( <= ( + T3 209 )( + T2 256 ) ) )
(or ( <= ( + T2 383 )  ( + T3 209 ) ) ( <= ( + T3 243 )( + T2 346 ) ) )
(or ( <= ( + T2 442 )  ( + T3 243 ) ) ( <= ( + T3 277 )( + T2 383 ) ) )
(or ( <= ( + T2 538 )  ( + T3 277 ) ) ( <= ( + T3 342 )( + T2 442 ) ) )
(or ( <= ( + T2 610 )  ( + T3 342 ) ) ( <= ( + T3 427 )( + T2 538 ) ) )
(or ( <= ( + T2 622 )  ( + T3 427 ) ) ( <= ( + T3 443 )( + T2 610 ) ) )
(or ( <= ( + T2 671 )  ( + T3 443 ) ) ( <= ( + T3 502 )( + T2 622 ) ) )
(or ( <= ( + T2 744 )  ( + T3 502 ) ) ( <= ( + T3 520 )( + T2 671 ) ) )
(or ( <= ( + T2 100 ) T4 ) ( <= ( + T4 39 ) T2 ) )
(or ( <= ( + T2 166 )  ( + T4 39 ) ) ( <= ( + T4 94 )( + T2 100 ) ) )
(or ( <= ( + T2 185 )  ( + T4 94 ) ) ( <= ( + T4 124 )( + T2 166 ) ) )
(or ( <= ( + T2 256 )  ( + T4 124 ) ) ( <= ( + T4 145 )( + T2 185 ) ) )
(or ( <= ( + T2 346 )  ( + T4 145 ) ) ( <= ( + T4 231 )( + T2 256 ) ) )
(or ( <= ( + T2 383 )  ( + T4 231 ) ) ( <= ( + T4 299 )( + T2 346 ) ) )
(or ( <= ( + T2 442 )  ( + T4 299 ) ) ( <= ( + T4 387 )( + T2 383 ) ) )
(or ( <= ( + T2 538 )  ( + T4 387 ) ) ( <= ( + T4 424 )( + T2 442 ) ) )
(or ( <= ( + T2 610 )  ( + T4 424 ) ) ( <= ( + T4 509 )( + T2 538 ) ) )
(or ( <= ( + T2 622 )  ( + T4 509 ) ) ( <= ( + T4 567 )( + T2 610 ) ) )
(or ( <= ( + T2 671 )  ( + T4 567 ) ) ( <= ( + T4 626 )( + T2 622 ) ) )
(or ( <= ( + T2 744 )  ( + T4 626 ) ) ( <= ( + T4 701 )( + T2 671 ) ) )
(or ( <= ( + T2 100 ) T5 ) ( <= ( + T5 46 ) T2 ) )
(or ( <= ( + T2 166 )  ( + T5 46 ) ) ( <= ( + T5 116 )( + T2 100 ) ) )
(or ( <= ( + T2 185 )  ( + T5 116 ) ) ( <= ( + T5 186 )( + T2 166 ) ) )
(or ( <= ( + T2 256 )  ( + T5 186 ) ) ( <= ( + T5 204 )( + T2 185 ) ) )
(or ( <= ( + T2 346 )  ( + T5 204 ) ) ( <= ( + T5 285 )( + T2 256 ) ) )
(or ( <= ( + T2 383 )  ( + T5 285 ) ) ( <= ( + T5 355 )( + T2 346 ) ) )
(or ( <= ( + T2 442 )  ( + T5 355 ) ) ( <= ( + T5 445 )( + T2 383 ) ) )
(or ( <= ( + T2 538 )  ( + T5 445 ) ) ( <= ( + T5 491 )( + T2 442 ) ) )
(or ( <= ( + T2 610 )  ( + T5 491 ) ) ( <= ( + T5 544 )( + T2 538 ) ) )
(or ( <= ( + T2 622 )  ( + T5 544 ) ) ( <= ( + T5 589 )( + T2 610 ) ) )
(or ( <= ( + T2 671 )  ( + T5 589 ) ) ( <= ( + T5 619 )( + T2 622 ) ) )
(or ( <= ( + T2 744 )  ( + T5 619 ) ) ( <= ( + T5 648 )( + T2 671 ) ) )
(or ( <= ( + T2 100 ) T6 ) ( <= ( + T6 78 ) T2 ) )
(or ( <= ( + T2 166 )  ( + T6 78 ) ) ( <= ( + T6 93 )( + T2 100 ) ) )
(or ( <= ( + T2 185 )  ( + T6 93 ) ) ( <= ( + T6 186 )( + T2 166 ) ) )
(or ( <= ( + T2 256 )  ( + T6 186 ) ) ( <= ( + T6 249 )( + T2 185 ) ) )
(or ( <= ( + T2 346 )  ( + T6 249 ) ) ( <= ( + T6 279 )( + T2 256 ) ) )
(or ( <= ( + T2 383 )  ( + T6 279 ) ) ( <= ( + T6 331 )( + T2 346 ) ) )
(or ( <= ( + T2 442 )  ( + T6 331 ) ) ( <= ( + T6 363 )( + T2 383 ) ) )
(or ( <= ( + T2 538 )  ( + T6 363 ) ) ( <= ( + T6 384 )( + T2 442 ) ) )
(or ( <= ( + T2 610 )  ( + T6 384 ) ) ( <= ( + T6 442 )( + T2 538 ) ) )
(or ( <= ( + T2 622 )  ( + T6 442 ) ) ( <= ( + T6 504 )( + T2 610 ) ) )
(or ( <= ( + T2 671 )  ( + T6 504 ) ) ( <= ( + T6 545 )( + T2 622 ) ) )
(or ( <= ( + T2 744 )  ( + T6 545 ) ) ( <= ( + T6 640 )( + T2 671 ) ) )
(or ( <= ( + T2 100 ) T7 ) ( <= ( + T7 81 ) T2 ) )
(or ( <= ( + T2 166 )  ( + T7 81 ) ) ( <= ( + T7 161 )( + T2 100 ) ) )
(or ( <= ( + T2 185 )  ( + T7 161 ) ) ( <= ( + T7 193 )( + T2 166 ) ) )
(or ( <= ( + T2 256 )  ( + T7 193 ) ) ( <= ( + T7 259 )( + T2 185 ) ) )
(or ( <= ( + T2 346 )  ( + T7 259 ) ) ( <= ( + T7 296 )( + T2 256 ) ) )
(or ( <= ( + T2 383 )  ( + T7 296 ) ) ( <= ( + T7 338 )( + T2 346 ) ) )
(or ( <= ( + T2 442 )  ( + T7 338 ) ) ( <= ( + T7 430 )( + T2 383 ) ) )
(or ( <= ( + T2 538 )  ( + T7 430 ) ) ( <= ( + T7 512 )( + T2 442 ) ) )
(or ( <= ( + T2 610 )  ( + T7 512 ) ) ( <= ( + T7 523 )( + T2 538 ) ) )
(or ( <= ( + T2 622 )  ( + T7 523 ) ) ( <= ( + T7 584 )( + T2 610 ) ) )
(or ( <= ( + T2 671 )  ( + T7 584 ) ) ( <= ( + T7 635 )( + T2 622 ) ) )
(or ( <= ( + T2 744 )  ( + T7 635 ) ) ( <= ( + T7 727 )( + T2 671 ) ) )
(or ( <= ( + T2 100 ) T8 ) ( <= ( + T8 30 ) T2 ) )
(or ( <= ( + T2 166 )  ( + T8 30 ) ) ( <= ( + T8 71 )( + T2 100 ) ) )
(or ( <= ( + T2 185 )  ( + T8 71 ) ) ( <= ( + T8 108 )( + T2 166 ) ) )
(or ( <= ( + T2 256 )  ( + T8 108 ) ) ( <= ( + T8 142 )( + T2 185 ) ) )
(or ( <= ( + T2 346 )  ( + T8 142 ) ) ( <= ( + T8 179 )( + T2 256 ) ) )
(or ( <= ( + T2 383 )  ( + T8 179 ) ) ( <= ( + T8 197 )( + T2 346 ) ) )
(or ( <= ( + T2 442 )  ( + T8 197 ) ) ( <= ( + T8 260 )( + T2 383 ) ) )
(or ( <= ( + T2 538 )  ( + T8 260 ) ) ( <= ( + T8 274 )( + T2 442 ) ) )
(or ( <= ( + T2 610 )  ( + T8 274 ) ) ( <= ( + T8 306 )( + T2 538 ) ) )
(or ( <= ( + T2 622 )  ( + T8 306 ) ) ( <= ( + T8 313 )( + T2 610 ) ) )
(or ( <= ( + T2 671 )  ( + T8 313 ) ) ( <= ( + T8 341 )( + T2 622 ) ) )
(or ( <= ( + T2 744 )  ( + T8 341 ) ) ( <= ( + T8 355 )( + T2 671 ) ) )
(or ( <= ( + T2 100 ) T9 ) ( <= ( + T9 10 ) T2 ) )
(or ( <= ( + T2 166 )  ( + T9 10 ) ) ( <= ( + T9 70 )( + T2 100 ) ) )
(or ( <= ( + T2 185 )  ( + T9 70 ) ) ( <= ( + T9 104 )( + T2 166 ) ) )
(or ( <= ( + T2 256 )  ( + T9 104 ) ) ( <= ( + T9 171 )( + T2 185 ) ) )
(or ( <= ( + T2 346 )  ( + T9 171 ) ) ( <= ( + T9 244 )( + T2 256 ) ) )
(or ( <= ( + T2 383 )  ( + T9 244 ) ) ( <= ( + T9 270 )( + T2 346 ) ) )
(or ( <= ( + T2 442 )  ( + T9 270 ) ) ( <= ( + T9 332 )( + T2 383 ) ) )
(or ( <= ( + T2 538 )  ( + T9 332 ) ) ( <= ( + T9 337 )( + T2 442 ) ) )
(or ( <= ( + T2 610 )  ( + T9 337 ) ) ( <= ( + T9 394 )( + T2 538 ) ) )
(or ( <= ( + T2 622 )  ( + T9 394 ) ) ( <= ( + T9 439 )( + T2 610 ) ) )
(or ( <= ( + T2 671 )  ( + T9 439 ) ) ( <= ( + T9 509 )( + T2 622 ) ) )
(or ( <= ( + T2 744 )  ( + T9 509 ) ) ( <= ( + T9 602 )( + T2 671 ) ) )
(or ( <= ( + T2 100 ) T10 ) ( <= ( + T10 86 ) T2 ) )
(or ( <= ( + T2 166 )  ( + T10 86 ) ) ( <= ( + T10 99 )( + T2 100 ) ) )
(or ( <= ( + T2 185 )  ( + T10 99 ) ) ( <= ( + T10 125 )( + T2 166 ) ) )
(or ( <= ( + T2 256 )  ( + T10 125 ) ) ( <= ( + T10 222 )( + T2 185 ) ) )
(or ( <= ( + T2 346 )  ( + T10 222 ) ) ( <= ( + T10 295 )( + T2 256 ) ) )
(or ( <= ( + T2 383 )  ( + T10 295 ) ) ( <= ( + T10 324 )( + T2 346 ) ) )
(or ( <= ( + T2 442 )  ( + T10 324 ) ) ( <= ( + T10 364 )( + T2 383 ) ) )
(or ( <= ( + T2 538 )  ( + T10 364 ) ) ( <= ( + T10 419 )( + T2 442 ) ) )
(or ( <= ( + T2 610 )  ( + T10 419 ) ) ( <= ( + T10 488 )( + T2 538 ) ) )
(or ( <= ( + T2 622 )  ( + T10 488 ) ) ( <= ( + T10 564 )( + T2 610 ) ) )
(or ( <= ( + T2 671 )  ( + T10 564 ) ) ( <= ( + T10 604 )( + T2 622 ) ) )
(or ( <= ( + T2 744 )  ( + T10 604 ) ) ( <= ( + T10 609 )( + T2 671 ) ) )
(or ( <= ( + T3 14 ) T4 ) ( <= ( + T4 39 ) T3 ) )
(or ( <= ( + T3 97 )  ( + T4 39 ) ) ( <= ( + T4 94 )( + T3 14 ) ) )
(or ( <= ( + T3 100 )  ( + T4 94 ) ) ( <= ( + T4 124 )( + T3 97 ) ) )
(or ( <= ( + T3 184 )  ( + T4 124 ) ) ( <= ( + T4 145 )( + T3 100 ) ) )
(or ( <= ( + T3 209 )  ( + T4 145 ) ) ( <= ( + T4 231 )( + T3 184 ) ) )
(or ( <= ( + T3 243 )  ( + T4 231 ) ) ( <= ( + T4 299 )( + T3 209 ) ) )
(or ( <= ( + T3 277 )  ( + T4 299 ) ) ( <= ( + T4 387 )( + T3 243 ) ) )
(or ( <= ( + T3 342 )  ( + T4 387 ) ) ( <= ( + T4 424 )( + T3 277 ) ) )
(or ( <= ( + T3 427 )  ( + T4 424 ) ) ( <= ( + T4 509 )( + T3 342 ) ) )
(or ( <= ( + T3 443 )  ( + T4 509 ) ) ( <= ( + T4 567 )( + T3 427 ) ) )
(or ( <= ( + T3 502 )  ( + T4 567 ) ) ( <= ( + T4 626 )( + T3 443 ) ) )
(or ( <= ( + T3 520 )  ( + T4 626 ) ) ( <= ( + T4 701 )( + T3 502 ) ) )
(or ( <= ( + T3 14 ) T5 ) ( <= ( + T5 46 ) T3 ) )
(or ( <= ( + T3 97 )  ( + T5 46 ) ) ( <= ( + T5 116 )( + T3 14 ) ) )
(or ( <= ( + T3 100 )  ( + T5 116 ) ) ( <= ( + T5 186 )( + T3 97 ) ) )
(or ( <= ( + T3 184 )  ( + T5 186 ) ) ( <= ( + T5 204 )( + T3 100 ) ) )
(or ( <= ( + T3 209 )  ( + T5 204 ) ) ( <= ( + T5 285 )( + T3 184 ) ) )
(or ( <= ( + T3 243 )  ( + T5 285 ) ) ( <= ( + T5 355 )( + T3 209 ) ) )
(or ( <= ( + T3 277 )  ( + T5 355 ) ) ( <= ( + T5 445 )( + T3 243 ) ) )
(or ( <= ( + T3 342 )  ( + T5 445 ) ) ( <= ( + T5 491 )( + T3 277 ) ) )
(or ( <= ( + T3 427 )  ( + T5 491 ) ) ( <= ( + T5 544 )( + T3 342 ) ) )
(or ( <= ( + T3 443 )  ( + T5 544 ) ) ( <= ( + T5 589 )( + T3 427 ) ) )
(or ( <= ( + T3 502 )  ( + T5 589 ) ) ( <= ( + T5 619 )( + T3 443 ) ) )
(or ( <= ( + T3 520 )  ( + T5 619 ) ) ( <= ( + T5 648 )( + T3 502 ) ) )
(or ( <= ( + T3 14 ) T6 ) ( <= ( + T6 78 ) T3 ) )
(or ( <= ( + T3 97 )  ( + T6 78 ) ) ( <= ( + T6 93 )( + T3 14 ) ) )
(or ( <= ( + T3 100 )  ( + T6 93 ) ) ( <= ( + T6 186 )( + T3 97 ) ) )
(or ( <= ( + T3 184 )  ( + T6 186 ) ) ( <= ( + T6 249 )( + T3 100 ) ) )
(or ( <= ( + T3 209 )  ( + T6 249 ) ) ( <= ( + T6 279 )( + T3 184 ) ) )
(or ( <= ( + T3 243 )  ( + T6 279 ) ) ( <= ( + T6 331 )( + T3 209 ) ) )
(or ( <= ( + T3 277 )  ( + T6 331 ) ) ( <= ( + T6 363 )( + T3 243 ) ) )
(or ( <= ( + T3 342 )  ( + T6 363 ) ) ( <= ( + T6 384 )( + T3 277 ) ) )
(or ( <= ( + T3 427 )  ( + T6 384 ) ) ( <= ( + T6 442 )( + T3 342 ) ) )
(or ( <= ( + T3 443 )  ( + T6 442 ) ) ( <= ( + T6 504 )( + T3 427 ) ) )
(or ( <= ( + T3 502 )  ( + T6 504 ) ) ( <= ( + T6 545 )( + T3 443 ) ) )
(or ( <= ( + T3 520 )  ( + T6 545 ) ) ( <= ( + T6 640 )( + T3 502 ) ) )
(or ( <= ( + T3 14 ) T7 ) ( <= ( + T7 81 ) T3 ) )
(or ( <= ( + T3 97 )  ( + T7 81 ) ) ( <= ( + T7 161 )( + T3 14 ) ) )
(or ( <= ( + T3 100 )  ( + T7 161 ) ) ( <= ( + T7 193 )( + T3 97 ) ) )
(or ( <= ( + T3 184 )  ( + T7 193 ) ) ( <= ( + T7 259 )( + T3 100 ) ) )
(or ( <= ( + T3 209 )  ( + T7 259 ) ) ( <= ( + T7 296 )( + T3 184 ) ) )
(or ( <= ( + T3 243 )  ( + T7 296 ) ) ( <= ( + T7 338 )( + T3 209 ) ) )
(or ( <= ( + T3 277 )  ( + T7 338 ) ) ( <= ( + T7 430 )( + T3 243 ) ) )
(or ( <= ( + T3 342 )  ( + T7 430 ) ) ( <= ( + T7 512 )( + T3 277 ) ) )
(or ( <= ( + T3 427 )  ( + T7 512 ) ) ( <= ( + T7 523 )( + T3 342 ) ) )
(or ( <= ( + T3 443 )  ( + T7 523 ) ) ( <= ( + T7 584 )( + T3 427 ) ) )
(or ( <= ( + T3 502 )  ( + T7 584 ) ) ( <= ( + T7 635 )( + T3 443 ) ) )
(or ( <= ( + T3 520 )  ( + T7 635 ) ) ( <= ( + T7 727 )( + T3 502 ) ) )
(or ( <= ( + T3 14 ) T8 ) ( <= ( + T8 30 ) T3 ) )
(or ( <= ( + T3 97 )  ( + T8 30 ) ) ( <= ( + T8 71 )( + T3 14 ) ) )
(or ( <= ( + T3 100 )  ( + T8 71 ) ) ( <= ( + T8 108 )( + T3 97 ) ) )
(or ( <= ( + T3 184 )  ( + T8 108 ) ) ( <= ( + T8 142 )( + T3 100 ) ) )
(or ( <= ( + T3 209 )  ( + T8 142 ) ) ( <= ( + T8 179 )( + T3 184 ) ) )
(or ( <= ( + T3 243 )  ( + T8 179 ) ) ( <= ( + T8 197 )( + T3 209 ) ) )
(or ( <= ( + T3 277 )  ( + T8 197 ) ) ( <= ( + T8 260 )( + T3 243 ) ) )
(or ( <= ( + T3 342 )  ( + T8 260 ) ) ( <= ( + T8 274 )( + T3 277 ) ) )
(or ( <= ( + T3 427 )  ( + T8 274 ) ) ( <= ( + T8 306 )( + T3 342 ) ) )
(or ( <= ( + T3 443 )  ( + T8 306 ) ) ( <= ( + T8 313 )( + T3 427 ) ) )
(or ( <= ( + T3 502 )  ( + T8 313 ) ) ( <= ( + T8 341 )( + T3 443 ) ) )
(or ( <= ( + T3 520 )  ( + T8 341 ) ) ( <= ( + T8 355 )( + T3 502 ) ) )
(or ( <= ( + T3 14 ) T9 ) ( <= ( + T9 10 ) T3 ) )
(or ( <= ( + T3 97 )  ( + T9 10 ) ) ( <= ( + T9 70 )( + T3 14 ) ) )
(or ( <= ( + T3 100 )  ( + T9 70 ) ) ( <= ( + T9 104 )( + T3 97 ) ) )
(or ( <= ( + T3 184 )  ( + T9 104 ) ) ( <= ( + T9 171 )( + T3 100 ) ) )
(or ( <= ( + T3 209 )  ( + T9 171 ) ) ( <= ( + T9 244 )( + T3 184 ) ) )
(or ( <= ( + T3 243 )  ( + T9 244 ) ) ( <= ( + T9 270 )( + T3 209 ) ) )
(or ( <= ( + T3 277 )  ( + T9 270 ) ) ( <= ( + T9 332 )( + T3 243 ) ) )
(or ( <= ( + T3 342 )  ( + T9 332 ) ) ( <= ( + T9 337 )( + T3 277 ) ) )
(or ( <= ( + T3 427 )  ( + T9 337 ) ) ( <= ( + T9 394 )( + T3 342 ) ) )
(or ( <= ( + T3 443 )  ( + T9 394 ) ) ( <= ( + T9 439 )( + T3 427 ) ) )
(or ( <= ( + T3 502 )  ( + T9 439 ) ) ( <= ( + T9 509 )( + T3 443 ) ) )
(or ( <= ( + T3 520 )  ( + T9 509 ) ) ( <= ( + T9 602 )( + T3 502 ) ) )
(or ( <= ( + T3 14 ) T10 ) ( <= ( + T10 86 ) T3 ) )
(or ( <= ( + T3 97 )  ( + T10 86 ) ) ( <= ( + T10 99 )( + T3 14 ) ) )
(or ( <= ( + T3 100 )  ( + T10 99 ) ) ( <= ( + T10 125 )( + T3 97 ) ) )
(or ( <= ( + T3 184 )  ( + T10 125 ) ) ( <= ( + T10 222 )( + T3 100 ) ) )
(or ( <= ( + T3 209 )  ( + T10 222 ) ) ( <= ( + T10 295 )( + T3 184 ) ) )
(or ( <= ( + T3 243 )  ( + T10 295 ) ) ( <= ( + T10 324 )( + T3 209 ) ) )
(or ( <= ( + T3 277 )  ( + T10 324 ) ) ( <= ( + T10 364 )( + T3 243 ) ) )
(or ( <= ( + T3 342 )  ( + T10 364 ) ) ( <= ( + T10 419 )( + T3 277 ) ) )
(or ( <= ( + T3 427 )  ( + T10 419 ) ) ( <= ( + T10 488 )( + T3 342 ) ) )
(or ( <= ( + T3 443 )  ( + T10 488 ) ) ( <= ( + T10 564 )( + T3 427 ) ) )
(or ( <= ( + T3 502 )  ( + T10 564 ) ) ( <= ( + T10 604 )( + T3 443 ) ) )
(or ( <= ( + T3 520 )  ( + T10 604 ) ) ( <= ( + T10 609 )( + T3 502 ) ) )
(or ( <= ( + T4 39 ) T5 ) ( <= ( + T5 46 ) T4 ) )
(or ( <= ( + T4 94 )  ( + T5 46 ) ) ( <= ( + T5 116 )( + T4 39 ) ) )
(or ( <= ( + T4 124 )  ( + T5 116 ) ) ( <= ( + T5 186 )( + T4 94 ) ) )
(or ( <= ( + T4 145 )  ( + T5 186 ) ) ( <= ( + T5 204 )( + T4 124 ) ) )
(or ( <= ( + T4 231 )  ( + T5 204 ) ) ( <= ( + T5 285 )( + T4 145 ) ) )
(or ( <= ( + T4 299 )  ( + T5 285 ) ) ( <= ( + T5 355 )( + T4 231 ) ) )
(or ( <= ( + T4 387 )  ( + T5 355 ) ) ( <= ( + T5 445 )( + T4 299 ) ) )
(or ( <= ( + T4 424 )  ( + T5 445 ) ) ( <= ( + T5 491 )( + T4 387 ) ) )
(or ( <= ( + T4 509 )  ( + T5 491 ) ) ( <= ( + T5 544 )( + T4 424 ) ) )
(or ( <= ( + T4 567 )  ( + T5 544 ) ) ( <= ( + T5 589 )( + T4 509 ) ) )
(or ( <= ( + T4 626 )  ( + T5 589 ) ) ( <= ( + T5 619 )( + T4 567 ) ) )
(or ( <= ( + T4 701 )  ( + T5 619 ) ) ( <= ( + T5 648 )( + T4 626 ) ) )
(or ( <= ( + T4 39 ) T6 ) ( <= ( + T6 78 ) T4 ) )
(or ( <= ( + T4 94 )  ( + T6 78 ) ) ( <= ( + T6 93 )( + T4 39 ) ) )
(or ( <= ( + T4 124 )  ( + T6 93 ) ) ( <= ( + T6 186 )( + T4 94 ) ) )
(or ( <= ( + T4 145 )  ( + T6 186 ) ) ( <= ( + T6 249 )( + T4 124 ) ) )
(or ( <= ( + T4 231 )  ( + T6 249 ) ) ( <= ( + T6 279 )( + T4 145 ) ) )
(or ( <= ( + T4 299 )  ( + T6 279 ) ) ( <= ( + T6 331 )( + T4 231 ) ) )
(or ( <= ( + T4 387 )  ( + T6 331 ) ) ( <= ( + T6 363 )( + T4 299 ) ) )
(or ( <= ( + T4 424 )  ( + T6 363 ) ) ( <= ( + T6 384 )( + T4 387 ) ) )
(or ( <= ( + T4 509 )  ( + T6 384 ) ) ( <= ( + T6 442 )( + T4 424 ) ) )
(or ( <= ( + T4 567 )  ( + T6 442 ) ) ( <= ( + T6 504 )( + T4 509 ) ) )
(or ( <= ( + T4 626 )  ( + T6 504 ) ) ( <= ( + T6 545 )( + T4 567 ) ) )
(or ( <= ( + T4 701 )  ( + T6 545 ) ) ( <= ( + T6 640 )( + T4 626 ) ) )
(or ( <= ( + T4 39 ) T7 ) ( <= ( + T7 81 ) T4 ) )
(or ( <= ( + T4 94 )  ( + T7 81 ) ) ( <= ( + T7 161 )( + T4 39 ) ) )
(or ( <= ( + T4 124 )  ( + T7 161 ) ) ( <= ( + T7 193 )( + T4 94 ) ) )
(or ( <= ( + T4 145 )  ( + T7 193 ) ) ( <= ( + T7 259 )( + T4 124 ) ) )
(or ( <= ( + T4 231 )  ( + T7 259 ) ) ( <= ( + T7 296 )( + T4 145 ) ) )
(or ( <= ( + T4 299 )  ( + T7 296 ) ) ( <= ( + T7 338 )( + T4 231 ) ) )
(or ( <= ( + T4 387 )  ( + T7 338 ) ) ( <= ( + T7 430 )( + T4 299 ) ) )
(or ( <= ( + T4 424 )  ( + T7 430 ) ) ( <= ( + T7 512 )( + T4 387 ) ) )
(or ( <= ( + T4 509 )  ( + T7 512 ) ) ( <= ( + T7 523 )( + T4 424 ) ) )
(or ( <= ( + T4 567 )  ( + T7 523 ) ) ( <= ( + T7 584 )( + T4 509 ) ) )
(or ( <= ( + T4 626 )  ( + T7 584 ) ) ( <= ( + T7 635 )( + T4 567 ) ) )
(or ( <= ( + T4 701 )  ( + T7 635 ) ) ( <= ( + T7 727 )( + T4 626 ) ) )
(or ( <= ( + T4 39 ) T8 ) ( <= ( + T8 30 ) T4 ) )
(or ( <= ( + T4 94 )  ( + T8 30 ) ) ( <= ( + T8 71 )( + T4 39 ) ) )
(or ( <= ( + T4 124 )  ( + T8 71 ) ) ( <= ( + T8 108 )( + T4 94 ) ) )
(or ( <= ( + T4 145 )  ( + T8 108 ) ) ( <= ( + T8 142 )( + T4 124 ) ) )
(or ( <= ( + T4 231 )  ( + T8 142 ) ) ( <= ( + T8 179 )( + T4 145 ) ) )
(or ( <= ( + T4 299 )  ( + T8 179 ) ) ( <= ( + T8 197 )( + T4 231 ) ) )
(or ( <= ( + T4 387 )  ( + T8 197 ) ) ( <= ( + T8 260 )( + T4 299 ) ) )
(or ( <= ( + T4 424 )  ( + T8 260 ) ) ( <= ( + T8 274 )( + T4 387 ) ) )
(or ( <= ( + T4 509 )  ( + T8 274 ) ) ( <= ( + T8 306 )( + T4 424 ) ) )
(or ( <= ( + T4 567 )  ( + T8 306 ) ) ( <= ( + T8 313 )( + T4 509 ) ) )
(or ( <= ( + T4 626 )  ( + T8 313 ) ) ( <= ( + T8 341 )( + T4 567 ) ) )
(or ( <= ( + T4 701 )  ( + T8 341 ) ) ( <= ( + T8 355 )( + T4 626 ) ) )
(or ( <= ( + T4 39 ) T9 ) ( <= ( + T9 10 ) T4 ) )
(or ( <= ( + T4 94 )  ( + T9 10 ) ) ( <= ( + T9 70 )( + T4 39 ) ) )
(or ( <= ( + T4 124 )  ( + T9 70 ) ) ( <= ( + T9 104 )( + T4 94 ) ) )
(or ( <= ( + T4 145 )  ( + T9 104 ) ) ( <= ( + T9 171 )( + T4 124 ) ) )
(or ( <= ( + T4 231 )  ( + T9 171 ) ) ( <= ( + T9 244 )( + T4 145 ) ) )
(or ( <= ( + T4 299 )  ( + T9 244 ) ) ( <= ( + T9 270 )( + T4 231 ) ) )
(or ( <= ( + T4 387 )  ( + T9 270 ) ) ( <= ( + T9 332 )( + T4 299 ) ) )
(or ( <= ( + T4 424 )  ( + T9 332 ) ) ( <= ( + T9 337 )( + T4 387 ) ) )
(or ( <= ( + T4 509 )  ( + T9 337 ) ) ( <= ( + T9 394 )( + T4 424 ) ) )
(or ( <= ( + T4 567 )  ( + T9 394 ) ) ( <= ( + T9 439 )( + T4 509 ) ) )
(or ( <= ( + T4 626 )  ( + T9 439 ) ) ( <= ( + T9 509 )( + T4 567 ) ) )
(or ( <= ( + T4 701 )  ( + T9 509 ) ) ( <= ( + T9 602 )( + T4 626 ) ) )
(or ( <= ( + T4 39 ) T10 ) ( <= ( + T10 86 ) T4 ) )
(or ( <= ( + T4 94 )  ( + T10 86 ) ) ( <= ( + T10 99 )( + T4 39 ) ) )
(or ( <= ( + T4 124 )  ( + T10 99 ) ) ( <= ( + T10 125 )( + T4 94 ) ) )
(or ( <= ( + T4 145 )  ( + T10 125 ) ) ( <= ( + T10 222 )( + T4 124 ) ) )
(or ( <= ( + T4 231 )  ( + T10 222 ) ) ( <= ( + T10 295 )( + T4 145 ) ) )
(or ( <= ( + T4 299 )  ( + T10 295 ) ) ( <= ( + T10 324 )( + T4 231 ) ) )
(or ( <= ( + T4 387 )  ( + T10 324 ) ) ( <= ( + T10 364 )( + T4 299 ) ) )
(or ( <= ( + T4 424 )  ( + T10 364 ) ) ( <= ( + T10 419 )( + T4 387 ) ) )
(or ( <= ( + T4 509 )  ( + T10 419 ) ) ( <= ( + T10 488 )( + T4 424 ) ) )
(or ( <= ( + T4 567 )  ( + T10 488 ) ) ( <= ( + T10 564 )( + T4 509 ) ) )
(or ( <= ( + T4 626 )  ( + T10 564 ) ) ( <= ( + T10 604 )( + T4 567 ) ) )
(or ( <= ( + T4 701 )  ( + T10 604 ) ) ( <= ( + T10 609 )( + T4 626 ) ) )
(or ( <= ( + T5 46 ) T6 ) ( <= ( + T6 78 ) T5 ) )
(or ( <= ( + T5 116 )  ( + T6 78 ) ) ( <= ( + T6 93 )( + T5 46 ) ) )
(or ( <= ( + T5 186 )  ( + T6 93 ) ) ( <= ( + T6 186 )( + T5 116 ) ) )
(or ( <= ( + T5 204 )  ( + T6 186 ) ) ( <= ( + T6 249 )( + T5 186 ) ) )
(or ( <= ( + T5 285 )  ( + T6 249 ) ) ( <= ( + T6 279 )( + T5 204 ) ) )
(or ( <= ( + T5 355 )  ( + T6 279 ) ) ( <= ( + T6 331 )( + T5 285 ) ) )
(or ( <= ( + T5 445 )  ( + T6 331 ) ) ( <= ( + T6 363 )( + T5 355 ) ) )
(or ( <= ( + T5 491 )  ( + T6 363 ) ) ( <= ( + T6 384 )( + T5 445 ) ) )
(or ( <= ( + T5 544 )  ( + T6 384 ) ) ( <= ( + T6 442 )( + T5 491 ) ) )
(or ( <= ( + T5 589 )  ( + T6 442 ) ) ( <= ( + T6 504 )( + T5 544 ) ) )
(or ( <= ( + T5 619 )  ( + T6 504 ) ) ( <= ( + T6 545 )( + T5 589 ) ) )
(or ( <= ( + T5 648 )  ( + T6 545 ) ) ( <= ( + T6 640 )( + T5 619 ) ) )
(or ( <= ( + T5 46 ) T7 ) ( <= ( + T7 81 ) T5 ) )
(or ( <= ( + T5 116 )  ( + T7 81 ) ) ( <= ( + T7 161 )( + T5 46 ) ) )
(or ( <= ( + T5 186 )  ( + T7 161 ) ) ( <= ( + T7 193 )( + T5 116 ) ) )
(or ( <= ( + T5 204 )  ( + T7 193 ) ) ( <= ( + T7 259 )( + T5 186 ) ) )
(or ( <= ( + T5 285 )  ( + T7 259 ) ) ( <= ( + T7 296 )( + T5 204 ) ) )
(or ( <= ( + T5 355 )  ( + T7 296 ) ) ( <= ( + T7 338 )( + T5 285 ) ) )
(or ( <= ( + T5 445 )  ( + T7 338 ) ) ( <= ( + T7 430 )( + T5 355 ) ) )
(or ( <= ( + T5 491 )  ( + T7 430 ) ) ( <= ( + T7 512 )( + T5 445 ) ) )
(or ( <= ( + T5 544 )  ( + T7 512 ) ) ( <= ( + T7 523 )( + T5 491 ) ) )
(or ( <= ( + T5 589 )  ( + T7 523 ) ) ( <= ( + T7 584 )( + T5 544 ) ) )
(or ( <= ( + T5 619 )  ( + T7 584 ) ) ( <= ( + T7 635 )( + T5 589 ) ) )
(or ( <= ( + T5 648 )  ( + T7 635 ) ) ( <= ( + T7 727 )( + T5 619 ) ) )
(or ( <= ( + T5 46 ) T8 ) ( <= ( + T8 30 ) T5 ) )
(or ( <= ( + T5 116 )  ( + T8 30 ) ) ( <= ( + T8 71 )( + T5 46 ) ) )
(or ( <= ( + T5 186 )  ( + T8 71 ) ) ( <= ( + T8 108 )( + T5 116 ) ) )
(or ( <= ( + T5 204 )  ( + T8 108 ) ) ( <= ( + T8 142 )( + T5 186 ) ) )
(or ( <= ( + T5 285 )  ( + T8 142 ) ) ( <= ( + T8 179 )( + T5 204 ) ) )
(or ( <= ( + T5 355 )  ( + T8 179 ) ) ( <= ( + T8 197 )( + T5 285 ) ) )
(or ( <= ( + T5 445 )  ( + T8 197 ) ) ( <= ( + T8 260 )( + T5 355 ) ) )
(or ( <= ( + T5 491 )  ( + T8 260 ) ) ( <= ( + T8 274 )( + T5 445 ) ) )
(or ( <= ( + T5 544 )  ( + T8 274 ) ) ( <= ( + T8 306 )( + T5 491 ) ) )
(or ( <= ( + T5 589 )  ( + T8 306 ) ) ( <= ( + T8 313 )( + T5 544 ) ) )
(or ( <= ( + T5 619 )  ( + T8 313 ) ) ( <= ( + T8 341 )( + T5 589 ) ) )
(or ( <= ( + T5 648 )  ( + T8 341 ) ) ( <= ( + T8 355 )( + T5 619 ) ) )
(or ( <= ( + T5 46 ) T9 ) ( <= ( + T9 10 ) T5 ) )
(or ( <= ( + T5 116 )  ( + T9 10 ) ) ( <= ( + T9 70 )( + T5 46 ) ) )
(or ( <= ( + T5 186 )  ( + T9 70 ) ) ( <= ( + T9 104 )( + T5 116 ) ) )
(or ( <= ( + T5 204 )  ( + T9 104 ) ) ( <= ( + T9 171 )( + T5 186 ) ) )
(or ( <= ( + T5 285 )  ( + T9 171 ) ) ( <= ( + T9 244 )( + T5 204 ) ) )
(or ( <= ( + T5 355 )  ( + T9 244 ) ) ( <= ( + T9 270 )( + T5 285 ) ) )
(or ( <= ( + T5 445 )  ( + T9 270 ) ) ( <= ( + T9 332 )( + T5 355 ) ) )
(or ( <= ( + T5 491 )  ( + T9 332 ) ) ( <= ( + T9 337 )( + T5 445 ) ) )
(or ( <= ( + T5 544 )  ( + T9 337 ) ) ( <= ( + T9 394 )( + T5 491 ) ) )
(or ( <= ( + T5 589 )  ( + T9 394 ) ) ( <= ( + T9 439 )( + T5 544 ) ) )
(or ( <= ( + T5 619 )  ( + T9 439 ) ) ( <= ( + T9 509 )( + T5 589 ) ) )
(or ( <= ( + T5 648 )  ( + T9 509 ) ) ( <= ( + T9 602 )( + T5 619 ) ) )
(or ( <= ( + T5 46 ) T10 ) ( <= ( + T10 86 ) T5 ) )
(or ( <= ( + T5 116 )  ( + T10 86 ) ) ( <= ( + T10 99 )( + T5 46 ) ) )
(or ( <= ( + T5 186 )  ( + T10 99 ) ) ( <= ( + T10 125 )( + T5 116 ) ) )
(or ( <= ( + T5 204 )  ( + T10 125 ) ) ( <= ( + T10 222 )( + T5 186 ) ) )
(or ( <= ( + T5 285 )  ( + T10 222 ) ) ( <= ( + T10 295 )( + T5 204 ) ) )
(or ( <= ( + T5 355 )  ( + T10 295 ) ) ( <= ( + T10 324 )( + T5 285 ) ) )
(or ( <= ( + T5 445 )  ( + T10 324 ) ) ( <= ( + T10 364 )( + T5 355 ) ) )
(or ( <= ( + T5 491 )  ( + T10 364 ) ) ( <= ( + T10 419 )( + T5 445 ) ) )
(or ( <= ( + T5 544 )  ( + T10 419 ) ) ( <= ( + T10 488 )( + T5 491 ) ) )
(or ( <= ( + T5 589 )  ( + T10 488 ) ) ( <= ( + T10 564 )( + T5 544 ) ) )
(or ( <= ( + T5 619 )  ( + T10 564 ) ) ( <= ( + T10 604 )( + T5 589 ) ) )
(or ( <= ( + T5 648 )  ( + T10 604 ) ) ( <= ( + T10 609 )( + T5 619 ) ) )
(or ( <= ( + T6 78 ) T7 ) ( <= ( + T7 81 ) T6 ) )
(or ( <= ( + T6 93 )  ( + T7 81 ) ) ( <= ( + T7 161 )( + T6 78 ) ) )
(or ( <= ( + T6 186 )  ( + T7 161 ) ) ( <= ( + T7 193 )( + T6 93 ) ) )
(or ( <= ( + T6 249 )  ( + T7 193 ) ) ( <= ( + T7 259 )( + T6 186 ) ) )
(or ( <= ( + T6 279 )  ( + T7 259 ) ) ( <= ( + T7 296 )( + T6 249 ) ) )
(or ( <= ( + T6 331 )  ( + T7 296 ) ) ( <= ( + T7 338 )( + T6 279 ) ) )
(or ( <= ( + T6 363 )  ( + T7 338 ) ) ( <= ( + T7 430 )( + T6 331 ) ) )
(or ( <= ( + T6 384 )  ( + T7 430 ) ) ( <= ( + T7 512 )( + T6 363 ) ) )
(or ( <= ( + T6 442 )  ( + T7 512 ) ) ( <= ( + T7 523 )( + T6 384 ) ) )
(or ( <= ( + T6 504 )  ( + T7 523 ) ) ( <= ( + T7 584 )( + T6 442 ) ) )
(or ( <= ( + T6 545 )  ( + T7 584 ) ) ( <= ( + T7 635 )( + T6 504 ) ) )
(or ( <= ( + T6 640 )  ( + T7 635 ) ) ( <= ( + T7 727 )( + T6 545 ) ) )
(or ( <= ( + T6 78 ) T8 ) ( <= ( + T8 30 ) T6 ) )
(or ( <= ( + T6 93 )  ( + T8 30 ) ) ( <= ( + T8 71 )( + T6 78 ) ) )
(or ( <= ( + T6 186 )  ( + T8 71 ) ) ( <= ( + T8 108 )( + T6 93 ) ) )
(or ( <= ( + T6 249 )  ( + T8 108 ) ) ( <= ( + T8 142 )( + T6 186 ) ) )
(or ( <= ( + T6 279 )  ( + T8 142 ) ) ( <= ( + T8 179 )( + T6 249 ) ) )
(or ( <= ( + T6 331 )  ( + T8 179 ) ) ( <= ( + T8 197 )( + T6 279 ) ) )
(or ( <= ( + T6 363 )  ( + T8 197 ) ) ( <= ( + T8 260 )( + T6 331 ) ) )
(or ( <= ( + T6 384 )  ( + T8 260 ) ) ( <= ( + T8 274 )( + T6 363 ) ) )
(or ( <= ( + T6 442 )  ( + T8 274 ) ) ( <= ( + T8 306 )( + T6 384 ) ) )
(or ( <= ( + T6 504 )  ( + T8 306 ) ) ( <= ( + T8 313 )( + T6 442 ) ) )
(or ( <= ( + T6 545 )  ( + T8 313 ) ) ( <= ( + T8 341 )( + T6 504 ) ) )
(or ( <= ( + T6 640 )  ( + T8 341 ) ) ( <= ( + T8 355 )( + T6 545 ) ) )
(or ( <= ( + T6 78 ) T9 ) ( <= ( + T9 10 ) T6 ) )
(or ( <= ( + T6 93 )  ( + T9 10 ) ) ( <= ( + T9 70 )( + T6 78 ) ) )
(or ( <= ( + T6 186 )  ( + T9 70 ) ) ( <= ( + T9 104 )( + T6 93 ) ) )
(or ( <= ( + T6 249 )  ( + T9 104 ) ) ( <= ( + T9 171 )( + T6 186 ) ) )
(or ( <= ( + T6 279 )  ( + T9 171 ) ) ( <= ( + T9 244 )( + T6 249 ) ) )
(or ( <= ( + T6 331 )  ( + T9 244 ) ) ( <= ( + T9 270 )( + T6 279 ) ) )
(or ( <= ( + T6 363 )  ( + T9 270 ) ) ( <= ( + T9 332 )( + T6 331 ) ) )
(or ( <= ( + T6 384 )  ( + T9 332 ) ) ( <= ( + T9 337 )( + T6 363 ) ) )
(or ( <= ( + T6 442 )  ( + T9 337 ) ) ( <= ( + T9 394 )( + T6 384 ) ) )
(or ( <= ( + T6 504 )  ( + T9 394 ) ) ( <= ( + T9 439 )( + T6 442 ) ) )
(or ( <= ( + T6 545 )  ( + T9 439 ) ) ( <= ( + T9 509 )( + T6 504 ) ) )
(or ( <= ( + T6 640 )  ( + T9 509 ) ) ( <= ( + T9 602 )( + T6 545 ) ) )
(or ( <= ( + T6 78 ) T10 ) ( <= ( + T10 86 ) T6 ) )
(or ( <= ( + T6 93 )  ( + T10 86 ) ) ( <= ( + T10 99 )( + T6 78 ) ) )
(or ( <= ( + T6 186 )  ( + T10 99 ) ) ( <= ( + T10 125 )( + T6 93 ) ) )
(or ( <= ( + T6 249 )  ( + T10 125 ) ) ( <= ( + T10 222 )( + T6 186 ) ) )
(or ( <= ( + T6 279 )  ( + T10 222 ) ) ( <= ( + T10 295 )( + T6 249 ) ) )
(or ( <= ( + T6 331 )  ( + T10 295 ) ) ( <= ( + T10 324 )( + T6 279 ) ) )
(or ( <= ( + T6 363 )  ( + T10 324 ) ) ( <= ( + T10 364 )( + T6 331 ) ) )
(or ( <= ( + T6 384 )  ( + T10 364 ) ) ( <= ( + T10 419 )( + T6 363 ) ) )
(or ( <= ( + T6 442 )  ( + T10 419 ) ) ( <= ( + T10 488 )( + T6 384 ) ) )
(or ( <= ( + T6 504 )  ( + T10 488 ) ) ( <= ( + T10 564 )( + T6 442 ) ) )
(or ( <= ( + T6 545 )  ( + T10 564 ) ) ( <= ( + T10 604 )( + T6 504 ) ) )
(or ( <= ( + T6 640 )  ( + T10 604 ) ) ( <= ( + T10 609 )( + T6 545 ) ) )
(or ( <= ( + T7 81 ) T8 ) ( <= ( + T8 30 ) T7 ) )
(or ( <= ( + T7 161 )  ( + T8 30 ) ) ( <= ( + T8 71 )( + T7 81 ) ) )
(or ( <= ( + T7 193 )  ( + T8 71 ) ) ( <= ( + T8 108 )( + T7 161 ) ) )
(or ( <= ( + T7 259 )  ( + T8 108 ) ) ( <= ( + T8 142 )( + T7 193 ) ) )
(or ( <= ( + T7 296 )  ( + T8 142 ) ) ( <= ( + T8 179 )( + T7 259 ) ) )
(or ( <= ( + T7 338 )  ( + T8 179 ) ) ( <= ( + T8 197 )( + T7 296 ) ) )
(or ( <= ( + T7 430 )  ( + T8 197 ) ) ( <= ( + T8 260 )( + T7 338 ) ) )
(or ( <= ( + T7 512 )  ( + T8 260 ) ) ( <= ( + T8 274 )( + T7 430 ) ) )
(or ( <= ( + T7 523 )  ( + T8 274 ) ) ( <= ( + T8 306 )( + T7 512 ) ) )
(or ( <= ( + T7 584 )  ( + T8 306 ) ) ( <= ( + T8 313 )( + T7 523 ) ) )
(or ( <= ( + T7 635 )  ( + T8 313 ) ) ( <= ( + T8 341 )( + T7 584 ) ) )
(or ( <= ( + T7 727 )  ( + T8 341 ) ) ( <= ( + T8 355 )( + T7 635 ) ) )
(or ( <= ( + T7 81 ) T9 ) ( <= ( + T9 10 ) T7 ) )
(or ( <= ( + T7 161 )  ( + T9 10 ) ) ( <= ( + T9 70 )( + T7 81 ) ) )
(or ( <= ( + T7 193 )  ( + T9 70 ) ) ( <= ( + T9 104 )( + T7 161 ) ) )
(or ( <= ( + T7 259 )  ( + T9 104 ) ) ( <= ( + T9 171 )( + T7 193 ) ) )
(or ( <= ( + T7 296 )  ( + T9 171 ) ) ( <= ( + T9 244 )( + T7 259 ) ) )
(or ( <= ( + T7 338 )  ( + T9 244 ) ) ( <= ( + T9 270 )( + T7 296 ) ) )
(or ( <= ( + T7 430 )  ( + T9 270 ) ) ( <= ( + T9 332 )( + T7 338 ) ) )
(or ( <= ( + T7 512 )  ( + T9 332 ) ) ( <= ( + T9 337 )( + T7 430 ) ) )
(or ( <= ( + T7 523 )  ( + T9 337 ) ) ( <= ( + T9 394 )( + T7 512 ) ) )
(or ( <= ( + T7 584 )  ( + T9 394 ) ) ( <= ( + T9 439 )( + T7 523 ) ) )
(or ( <= ( + T7 635 )  ( + T9 439 ) ) ( <= ( + T9 509 )( + T7 584 ) ) )
(or ( <= ( + T7 727 )  ( + T9 509 ) ) ( <= ( + T9 602 )( + T7 635 ) ) )
(or ( <= ( + T7 81 ) T10 ) ( <= ( + T10 86 ) T7 ) )
(or ( <= ( + T7 161 )  ( + T10 86 ) ) ( <= ( + T10 99 )( + T7 81 ) ) )
(or ( <= ( + T7 193 )  ( + T10 99 ) ) ( <= ( + T10 125 )( + T7 161 ) ) )
(or ( <= ( + T7 259 )  ( + T10 125 ) ) ( <= ( + T10 222 )( + T7 193 ) ) )
(or ( <= ( + T7 296 )  ( + T10 222 ) ) ( <= ( + T10 295 )( + T7 259 ) ) )
(or ( <= ( + T7 338 )  ( + T10 295 ) ) ( <= ( + T10 324 )( + T7 296 ) ) )
(or ( <= ( + T7 430 )  ( + T10 324 ) ) ( <= ( + T10 364 )( + T7 338 ) ) )
(or ( <= ( + T7 512 )  ( + T10 364 ) ) ( <= ( + T10 419 )( + T7 430 ) ) )
(or ( <= ( + T7 523 )  ( + T10 419 ) ) ( <= ( + T10 488 )( + T7 512 ) ) )
(or ( <= ( + T7 584 )  ( + T10 488 ) ) ( <= ( + T10 564 )( + T7 523 ) ) )
(or ( <= ( + T7 635 )  ( + T10 564 ) ) ( <= ( + T10 604 )( + T7 584 ) ) )
(or ( <= ( + T7 727 )  ( + T10 604 ) ) ( <= ( + T10 609 )( + T7 635 ) ) )
(or ( <= ( + T8 30 ) T9 ) ( <= ( + T9 10 ) T8 ) )
(or ( <= ( + T8 71 )  ( + T9 10 ) ) ( <= ( + T9 70 )( + T8 30 ) ) )
(or ( <= ( + T8 108 )  ( + T9 70 ) ) ( <= ( + T9 104 )( + T8 71 ) ) )
(or ( <= ( + T8 142 )  ( + T9 104 ) ) ( <= ( + T9 171 )( + T8 108 ) ) )
(or ( <= ( + T8 179 )  ( + T9 171 ) ) ( <= ( + T9 244 )( + T8 142 ) ) )
(or ( <= ( + T8 197 )  ( + T9 244 ) ) ( <= ( + T9 270 )( + T8 179 ) ) )
(or ( <= ( + T8 260 )  ( + T9 270 ) ) ( <= ( + T9 332 )( + T8 197 ) ) )
(or ( <= ( + T8 274 )  ( + T9 332 ) ) ( <= ( + T9 337 )( + T8 260 ) ) )
(or ( <= ( + T8 306 )  ( + T9 337 ) ) ( <= ( + T9 394 )( + T8 274 ) ) )
(or ( <= ( + T8 313 )  ( + T9 394 ) ) ( <= ( + T9 439 )( + T8 306 ) ) )
(or ( <= ( + T8 341 )  ( + T9 439 ) ) ( <= ( + T9 509 )( + T8 313 ) ) )
(or ( <= ( + T8 355 )  ( + T9 509 ) ) ( <= ( + T9 602 )( + T8 341 ) ) )
(or ( <= ( + T8 30 ) T10 ) ( <= ( + T10 86 ) T8 ) )
(or ( <= ( + T8 71 )  ( + T10 86 ) ) ( <= ( + T10 99 )( + T8 30 ) ) )
(or ( <= ( + T8 108 )  ( + T10 99 ) ) ( <= ( + T10 125 )( + T8 71 ) ) )
(or ( <= ( + T8 142 )  ( + T10 125 ) ) ( <= ( + T10 222 )( + T8 108 ) ) )
(or ( <= ( + T8 179 )  ( + T10 222 ) ) ( <= ( + T10 295 )( + T8 142 ) ) )
(or ( <= ( + T8 197 )  ( + T10 295 ) ) ( <= ( + T10 324 )( + T8 179 ) ) )
(or ( <= ( + T8 260 )  ( + T10 324 ) ) ( <= ( + T10 364 )( + T8 197 ) ) )
(or ( <= ( + T8 274 )  ( + T10 364 ) ) ( <= ( + T10 419 )( + T8 260 ) ) )
(or ( <= ( + T8 306 )  ( + T10 419 ) ) ( <= ( + T10 488 )( + T8 274 ) ) )
(or ( <= ( + T8 313 )  ( + T10 488 ) ) ( <= ( + T10 564 )( + T8 306 ) ) )
(or ( <= ( + T8 341 )  ( + T10 564 ) ) ( <= ( + T10 604 )( + T8 313 ) ) )
(or ( <= ( + T8 355 )  ( + T10 604 ) ) ( <= ( + T10 609 )( + T8 341 ) ) )
(or ( <= ( + T9 10 ) T10 ) ( <= ( + T10 86 ) T9 ) )
(or ( <= ( + T9 70 )  ( + T10 86 ) ) ( <= ( + T10 99 )( + T9 10 ) ) )
(or ( <= ( + T9 104 )  ( + T10 99 ) ) ( <= ( + T10 125 )( + T9 70 ) ) )
(or ( <= ( + T9 171 )  ( + T10 125 ) ) ( <= ( + T10 222 )( + T9 104 ) ) )
(or ( <= ( + T9 244 )  ( + T10 222 ) ) ( <= ( + T10 295 )( + T9 171 ) ) )
(or ( <= ( + T9 270 )  ( + T10 295 ) ) ( <= ( + T10 324 )( + T9 244 ) ) )
(or ( <= ( + T9 332 )  ( + T10 324 ) ) ( <= ( + T10 364 )( + T9 270 ) ) )
(or ( <= ( + T9 337 )  ( + T10 364 ) ) ( <= ( + T10 419 )( + T9 332 ) ) )
(or ( <= ( + T9 394 )  ( + T10 419 ) ) ( <= ( + T10 488 )( + T9 337 ) ) )
(or ( <= ( + T9 439 )  ( + T10 488 ) ) ( <= ( + T10 564 )( + T9 394 ) ) )
(or ( <= ( + T9 509 )  ( + T10 564 ) ) ( <= ( + T10 604 )( + T9 439 ) ) )
(or ( <= ( + T9 602 )  ( + T10 604 ) ) ( <= ( + T10 609 )( + T9 509 ) ) )
( <= ( + T1 750 ) Z)
( <= ( + T2 744 ) Z)
( <= ( + T3 520 ) Z)
( <= ( + T4 701 ) Z)
( <= ( + T5 648 ) Z)
( <= ( + T6 640 ) Z)
( <= ( + T7 727 ) Z)
( <= ( + T8 355 ) Z)
( <= ( + T9 602 ) Z)
( <= ( + T10 609 ) Z)
( >= T1 0 )
( >= T2 0 )
( >= T3 0 )
( >= T4 0 )
( >= T5 0 )
( >= T6 0 )
( >= T7 0 )
( >= T8 0 )
( >= T9 0 )
( >= T10 0 )
) )
)(=> $phi $goal))))